GLPSOL: GLPK LP/MIP Solver, v4.65
Parameter(s) specified in the command line:
 --model solver_drone.mod --data solver_drone_data_10.dat --output solver_drone_solution_10_3.log
 --log solver_drone_cmd_output_10_3.log --tmlim 20
Reading model section from solver_drone.mod...
41 lines were read
Reading data section from solver_drone_data_10.dat...
37 lines were read
Generating f...
Generating package_deliverd_once...
Generating package_well_delivered...
Generating time_spent_flying...
Generating autonomy_not_exceeded...
Generating check_time_max...
Model has been successfully generated
GLPK Integer Optimizer, v4.65
532 rows, 499 columns, 1540 non-zeros
499 integer variables, 495 of which are binary
Preprocessing...
36 rows, 499 columns, 1044 non-zeros
499 integer variables, 495 of which are binary
Scaling...
 A: min|aij| =  1.000e+00  max|aij| =  1.544e+03  ratio =  1.544e+03
GM: min|aij| =  5.566e-01  max|aij| =  1.797e+00  ratio =  3.228e+00
EQ: min|aij| =  3.098e-01  max|aij| =  1.000e+00  ratio =  3.228e+00
2N: min|aij| =  2.969e-01  max|aij| =  1.516e+00  ratio =  5.105e+00
Constructing initial basis...
Size of triangular part is 36
Solving LP relaxation...
GLPK Simplex Optimizer, v4.65
36 rows, 499 columns, 1044 non-zeros
      0: obj =   0.000000000e+00 inf =   3.524e+02 (1)
     35: obj =   3.758666667e+03 inf =   1.002e-14 (0)
*    39: obj =   3.758666667e+03 inf =   5.329e-15 (0)
OPTIMAL LP SOLUTION FOUND
Integer optimization begins...
Long-step dual simplex will be used
+    39: mip =     not found yet >=              -inf        (1; 0)
+   175: >>>>>   3.812000000e+03 >=   3.759000000e+03   1.4% (22; 0)
+   191: >>>>>   3.788000000e+03 >=   3.759000000e+03   0.8% (19; 15)
+   208: >>>>>   3.784000000e+03 >=   3.759000000e+03   0.7% (19; 17)
+  2072: >>>>>   3.768000000e+03 >=   3.759000000e+03   0.2% (105; 118)
+  4211: >>>>>   3.764000000e+03 >=   3.759000000e+03   0.1% (191; 296)
+ 96841: mip =   3.764000000e+03 >=   3.759000000e+03   0.1% (1291; 13117)
+185681: mip =   3.764000000e+03 >=   3.759000000e+03   0.1% (1938; 26929)
+228865: mip =   3.764000000e+03 >=     tree is empty   0.0% (0; 46041)
INTEGER OPTIMAL SOLUTION FOUND
Time used:   13.3 secs
Memory used: 15.2 Mb (15935876 bytes)
The package 1 is delivered by the drone 3 to the house 1
The package 2 is delivered by the drone 1 to the house 1
The package 3 is delivered by the drone 1 to the house 1
The package 4 is delivered by the drone 1 to the house 2
The package 5 is delivered by the drone 1 to the house 2
The package 6 is delivered by the drone 2 to the house 2
The package 7 is delivered by the drone 3 to the house 3
The package 8 is delivered by the drone 2 to the house 4
The package 9 is delivered by the drone 3 to the house 6
The package 10 is delivered by the drone 2 to the house 7
The package 11 is delivered by the drone 1 to the house 8
The package 12 is delivered by the drone 3 to the house 8
The package 13 is delivered by the drone 2 to the house 9
The package 14 is delivered by the drone 2 to the house 10
The package 15 is delivered by the drone 3 to the house 10
Model has been successfully processed
Writing MIP solution to 'solver_drone_solution_10_3.log'...
